TCS_Benchmarks/redos_fix/corpus1_output_distinct_3435_3434_0_0.txt
(.*)(\s+)
(.*)(UTS_RELEASE)(\s+)